
Gurobi 13.0.1 (linux64) logging started Wed Mar 25 22:28:54 2026

Set parameter LogFile to value "logs_sparse/50B_3F_robust_gamma_0d25_theta_0d05199999999999999_2026-03-25_22h28m48s.log"
Set parameter MIPGap to value 0.005
Set parameter OptimalityTol to value 0.005
Gurobi Optimizer version 13.0.1 build v13.0.1rc0 (linux64 - "Linux Mint 22")

CPU model: 12th Gen Intel(R) Core(TM) i7-12700, instruction set [SSE2|AVX|AVX2]
Thread count: 20 physical cores, 20 logical processors, using up to 20 threads

Non-default parameters:
TimeLimit  3600
SoftMemLimit  12
MIPGap  0.005
OptimalityTol  0.005

Optimize a model with 30471 rows, 390571 columns and 1204034 nonzeros (Max)
Model fingerprint: 0x1955e54e
Model has 367561 linear objective coefficients
Variable types: 8071 continuous, 382500 integer (382500 binary)
Coefficient statistics:
  Matrix range     [3e-05, 1e+05]
  Objective range  [1e+00, 3e+03]
  Bounds range     [1e+00, 1e+05]
  RHS range        [8e-03, 1e+05]

Presolve removed 15658 rows and 282196 columns
Presolve time: 0.61s
Presolved: 14813 rows, 108375 columns, 345908 nonzeros
Variable types: 3921 continuous, 104454 integer (104454 binary)
Found heuristic solution: objective -3.92155e+08
Deterministic concurrent LP optimizer: primal and dual simplex
Showing primal log only...

Concurrent spin time: 0.35s (can be avoided by choosing Method=3)

Solved with dual simplex

Root relaxation: objective 1.069399e+08, 10827 iterations, 2.04 seconds (3.32 work units)

    Nodes    |    Current Node    |     Objective Bounds      |     Work
 Expl Unexpl |  Obj  Depth IntInf | Incumbent    BestBd   Gap | It/Node Time

     0     0 1.0694e+08    0 4635 -3.922e+08 1.0694e+08   127%     -    3s
H    0     0                    -1.97266e+08 1.0694e+08   154%     -    3s
H    0     0                    -9.43105e+07 1.0694e+08   213%     -    3s
H    0     0                    -6.79466e+07 1.0694e+08   257%     -    4s
H    0     0                    -6.54193e+07 1.0694e+08   263%     -    5s
H    0     0                    -5.86567e+07 1.0694e+08   282%     -    7s
H    0     0                    -2.92674e+07 1.0694e+08   465%     -    8s
H    0     0                    -9272652.949 1.0694e+08  1253%     -    9s
H    0     0                    -3899305.832 1.0694e+08  2843%     -    9s
H    0     0                    4559014.0059 1.0694e+08  2246%     -    9s
H    0     0                    4992301.4605 1.0694e+08  2042%     -   11s
H    0     0                    5140370.3624 1.0694e+08  1980%     -   11s
H    0     0                    1.874266e+07 1.0694e+08   471%     -   11s
H    0     0                    1.874382e+07 1.0694e+08   471%     -   12s
H    0     0                    2.308750e+07 1.0694e+08   363%     -   12s
H    0     0                    2.334869e+07 1.0694e+08   358%     -   12s
H    0     0                    2.447267e+07 1.0694e+08   337%     -   12s
H    0     0                    2.457346e+07 1.0694e+08   335%     -   12s
H    0     0                    2.877608e+07 1.0694e+08   272%     -   17s
H    0     0                    2.914257e+07 1.0694e+08   267%     -   17s
H    0     0                    5.893255e+07 1.0694e+08  81.5%     -   17s
H    0     0                    5.913715e+07 1.0694e+08  80.8%     -   20s
     0     0 1.0694e+08    0 4040 5.9137e+07 1.0694e+08  80.8%     -   20s
H    0     0                    5.913921e+07 1.0694e+08  80.8%     -   31s
H    0     0                    5.913923e+07 1.0694e+08  80.8%     -   39s
     0     0 1.0694e+08    0 4040 5.9139e+07 1.0694e+08  80.8%     -   39s
H    0     0                    6.059954e+07 1.0694e+08  76.5%     -   55s
H    0     0                    6.682980e+07 1.0694e+08  60.0%     -   55s
     0     0 1.0694e+08    0 4592 6.6830e+07 1.0694e+08  60.0%     -   56s
H    0     0                    7.689722e+07 1.0694e+08  39.1%     -   62s
     0     0 1.0694e+08    0 4382 7.6897e+07 1.0694e+08  39.1%     -   64s
     0     0 1.0694e+08    0 4485 7.6897e+07 1.0694e+08  39.1%     -   67s
H    0     0                    7.693686e+07 1.0694e+08  39.0%     -   85s
H    0     0                    8.855618e+07 1.0694e+08  20.8%     -   89s
H    0     0                    8.920155e+07 1.0694e+08  19.9%     -   89s
H    0     0                    8.922645e+07 1.0694e+08  19.9%     -   89s
H    0     0                    8.930378e+07 1.0694e+08  19.7%     -   89s
H    0     0                    9.005516e+07 1.0694e+08  18.7%     -   89s
H    0     0                    9.090696e+07 1.0694e+08  17.6%     -   89s
     0     0 1.0694e+08    0 4986 9.0907e+07 1.0694e+08  17.6%     -   89s
     0     0 1.0694e+08    0 4926 9.0907e+07 1.0694e+08  17.6%     -   95s
     0     0 1.0694e+08    0 5008 9.0907e+07 1.0694e+08  17.6%     -  123s
H    0     0                    9.104352e+07 1.0694e+08  17.5%     -  124s
H    0     0                    9.131543e+07 1.0694e+08  17.1%     -  126s
H    0     0                    9.138852e+07 1.0694e+08  17.0%     -  134s
H    0     0                    9.247341e+07 1.0694e+08  15.6%     -  134s
H    0     0                    9.361612e+07 1.0694e+08  14.2%     -  135s
H    0     0                    9.388678e+07 1.0694e+08  13.9%     -  139s
H    0     0                    9.442341e+07 1.0694e+08  13.3%     -  139s
H    0     0                    9.442597e+07 1.0694e+08  13.3%     -  144s
     0     0 1.0694e+08    0 5180 9.4426e+07 1.0694e+08  13.3%     -  154s
     0     0 1.0694e+08    0 4933 9.4426e+07 1.0694e+08  13.3%     -  175s
     0     0 1.0694e+08    0 4933 9.4426e+07 1.0694e+08  13.3%     -  176s
     0     0 1.0694e+08    0 4880 9.4426e+07 1.0694e+08  13.3%     -  176s
H    0     0                    9.443361e+07 1.0694e+08  13.2%     -  201s
H    0     0                    9.443361e+07 1.0694e+08  13.2%     -  202s
H    0     0                    9.448908e+07 1.0694e+08  13.2%     -  203s
     0     2 1.0694e+08    0 4856 9.4489e+07 1.0694e+08  13.2%     -  206s
     1     4 1.0694e+08    1 4930 9.4489e+07 1.0694e+08  13.2%  6046  226s
     3     7 1.0694e+08    2 4874 9.4489e+07 1.0694e+08  13.2% 17066  240s
     6    13 1.0694e+08    3 4983 9.4489e+07 1.0694e+08  13.2% 17244  284s
    12    19  postponed    3      9.4489e+07 1.0694e+08  13.2% 124063 1651s
    18    33 1.0694e+08    4 3633 9.4489e+07 1.0694e+08  13.2% 260126 1830s
H   20    33                    9.453668e+07 1.0694e+08  13.1% 239006 1830s
    32    53 1.0694e+08    5 3757 9.4537e+07 1.0694e+08  13.1% 177755 2084s
    52    73 1.0694e+08    6 3749 9.4537e+07 1.0694e+08  13.1% 113431 2356s
H   63    73                    9.457213e+07 1.0694e+08  13.1% 94575 2356s
H   72   273                    9.458891e+07 1.0694e+08  13.1% 83857 2653s
H   82   273                    9.458937e+07 1.0694e+08  13.1% 74768 2653s
H   92   273                    9.528451e+07 1.0694e+08  12.2% 67590 2653s
H  142   273                    9.556512e+07 1.0694e+08  11.9% 46042 2653s
H  162   273                    9.582504e+07 1.0694e+08  11.6% 41350 2653s
H  272   496                    9.714342e+07 1.0694e+08  10.1% 28462 3004s
H  288   496                    9.771194e+07 1.0694e+08  9.44% 27240 3004s
H  320   496                    9.784632e+07 1.0694e+08  9.29% 25387 3004s
H  338   496                    9.815274e+07 1.0694e+08  8.95% 24235 3004s
H  346   496                    9.815284e+07 1.0694e+08  8.95% 23987 3004s
H  359   496                    9.849854e+07 1.0694e+08  8.57% 23365 3004s
   495   967 1.0694e+08   20 3881 9.8499e+07 1.0694e+08  8.57% 19261 3600s

Cutting planes:
  Gomory: 15
  Implied bound: 1
  MIR: 18
  Flow cover: 155
  Mod-K: 6
  RLT: 2036
  Relax-and-lift: 65

Explored 966 nodes (13357175 simplex iterations) in 3600.04 seconds (3984.61 work units)
Thread count was 20 (of 20 available processors)

Solution count 10: 9.84985e+07 9.81528e+07 9.81527e+07 ... 9.45894e+07

Time limit reached
Best objective 9.849854102545e+07, best bound 1.069385493735e+08, gap 8.5687%
